NAME : lrc202.1374267.tour
COMMENT : Cost = 0_1374267
COMMENT : Found by LKH [Keld Helsgaun] Fri Sep 15 17:42:02 2017
TYPE : TOUR
DIMENSION : 105
TOUR_SECTION
1
99
46
6
4
2
43
37
38
40
45
62
89
74
17
100
54
79
80
9
7
47
3
56
69
102
44
36
55
97
94
95
81
104
66
83
13
15
48
16
12
70
65
20
24
49
19
77
52
23
87
88
10
58
53
11
98
60
75
14
18
8
5
61
101
71
105
93
96
86
64
34
29
27
28
30
32
31
63
68
72
73
39
41
42
82
91
92
85
50
21
84
67
57
51
35
33
90
25
22
26
78
76
59
103
-1
EOF
